  -4961.07       2920.67
  -6202.70       3014.64
  -5544.93       2494.33
  -6712.64       3446.49
  -5400.52       2707.84
  -5383.92       2365.84
  -5220.18       2746.55
  -7159.69       3326.96
  -5320.37       2850.20
  -5685.17       2603.52
  -6805.21       2342.34
  -6725.75       2604.20
  -5577.40       2768.64
  -5531.11       1846.22
  -8313.57       3276.50
  -8456.60       2861.92
  -5690.01       2157.15
  -6193.72       3106.52
  -6068.67       2926.89
  -6709.88       3102.40
  -5245.72       3038.81
  -6380.27       2936.57
  -5047.44       2870.91
  -5322.42       2687.11
  -5468.21       2891.63
  -8176.09       3183.22
  -6711.93       2179.95
